(set-info :smt-lib-version 2.7)
(set-logic QF_SNIA)
(set-info :source  | 
Generated by: Johannes Bauer
Generated on: 2026-06-21
Generator: mgm A12 Test Data Generator
Application: ELSTER
Target solver: Z3, CVC5
Script is based on the ELSTER form: capital gains tax registration (A / KapEStInvStG)
Characteristic of the form: easy.
In this script, all terms of the form (* x1 x2 x3 ...) are in the form (* x1 c2 c3 ...),
all terms of the form (div x y) are in the form (div x c) and the symbol mod is exclusively used in the form (mod x c),
where x, y, and x1, x2, x3 ... are free constants and c, c2, c3 ... are terms in the form n or (-n) for some numeral n.
The script starts with the base constraints, which define a valid data set for the corresponding form. After the first (push 1), control constraints follow.
The goal of the control constraints in this script is to fill up a data set with values, after the characteristics of the high test coverage were placed.
number variables: 141, number constraints: 167
"https://www.elster.de/eportal/start?locale=en_US"
"https://www.mgm-tp.com/q12-tdg.html"
"https://a12.ai/public-sector"
|)
(set-info :license "https://creativecommons.org/licenses/by/4.0/")
(set-info :category "industrial")
(set-info :major-phase |variable declarations|)
(declare-fun S1-S () String)
(declare-fun S2-S () String)
(declare-fun B3-F () Bool)
(declare-fun S3-S () String)
(declare-fun B4-F () Bool)
(declare-fun B5-F () Bool)
(declare-fun B6-F () Bool)
(declare-fun B7-F () Bool)
(declare-fun I7-y () Int)
(declare-fun B8-F () Bool)
(declare-fun S8-S () String)
(declare-fun B9-F () Bool)
(declare-fun S10-S () String)
(declare-fun I11-y () Int)
(declare-fun I11-m () Int)
(declare-fun I11-d () Int)
(declare-fun I12-y () Int)
(declare-fun I12-m () Int)
(declare-fun I12-d () Int)
(declare-fun I13 () Int)
(declare-fun I14-s-y () Int)
(declare-fun I14-s-m () Int)
(declare-fun I14-s-d () Int)
(declare-fun I14-e-y () Int)
(declare-fun I14-e-m () Int)
(declare-fun I14-e-d () Int)
(declare-fun I15-y () Int)
(declare-fun I15-m () Int)
(declare-fun I15-d () Int)
(declare-fun I16-y () Int)
(declare-fun I16-m () Int)
(declare-fun I16-d () Int)
(declare-fun I17 () Int)
(declare-fun B18-F () Bool)
(declare-fun B19-F () Bool)
(declare-fun B20-F () Bool)
(declare-fun I20 () Int)
(declare-fun B21-F () Bool)
(declare-fun I21 () Int)
(declare-fun B22-F () Bool)
(declare-fun I22 () Int)
(declare-fun I23 () Int)
(declare-fun I24-s-y () Int)
(declare-fun I24-s-m () Int)
(declare-fun I24-s-d () Int)
(declare-fun I24-e-y () Int)
(declare-fun I24-e-m () Int)
(declare-fun I24-e-d () Int)
(declare-fun I25-y () Int)
(declare-fun I25-m () Int)
(declare-fun I25-d () Int)
(declare-fun I26-y () Int)
(declare-fun I26-m () Int)
(declare-fun I26-d () Int)
(declare-fun I27 () Int)
(declare-fun I28 () Int)
(declare-fun I29 () Int)
(declare-fun I30 () Int)
(declare-fun S31-S () String)
(declare-fun I32-y () Int)
(declare-fun I32-m () Int)
(declare-fun I32-d () Int)
(declare-fun B33-F () Bool)
(declare-fun I33-y () Int)
(declare-fun I33-m () Int)
(declare-fun I33-d () Int)
(declare-fun B34-F () Bool)
(declare-fun I34-y () Int)
(declare-fun I34-m () Int)
(declare-fun I34-d () Int)
(declare-fun I35 () Int)
(declare-fun I36 () Int)
(declare-fun I37 () Int)
(declare-fun I38 () Int)
(declare-fun I39 () Int)
(declare-fun I40 () Int)
(declare-fun I41-y () Int)
(declare-fun I41-m () Int)
(declare-fun I41-d () Int)
(declare-fun I42 () Int)
(declare-fun I43 () Int)
(declare-fun I44 () Int)
(declare-fun I45 () Int)
(declare-fun I46 () Int)
(declare-fun I47 () Int)
(declare-fun B48-F () Bool)
(declare-fun B49-F () Bool)
(declare-fun B50-F () Bool)
(declare-fun I50 () Int)
(declare-fun B51-F () Bool)
(declare-fun I51 () Int)
(declare-fun B52-F () Bool)
(declare-fun I52 () Int)
(declare-fun B53-F () Bool)
(declare-fun B54-F () Bool)
(declare-fun I54 () Int)
(declare-fun B55-F () Bool)
(declare-fun I55 () Int)
(declare-fun B56-F () Bool)
(declare-fun I56 () Int)
(declare-fun B57-F () Bool)
(declare-fun B58-F () Bool)
(declare-fun I58-y () Int)
(declare-fun I58-m () Int)
(declare-fun I58-d () Int)
(declare-fun B59-F () Bool)
(declare-fun B60-F () Bool)
(declare-fun I60 () Int)
(declare-fun B61-F () Bool)
(declare-fun I61 () Int)
(declare-fun B62-F () Bool)
(declare-fun B63-F () Bool)
(declare-fun B64-F () Bool)
(declare-fun B65-F () Bool)
(declare-fun B66-F () Bool)
(declare-fun I66 () Int)
(declare-fun B67-F () Bool)
(declare-fun B68-F () Bool)
(declare-fun I68 () Int)
(declare-fun B69-F () Bool)
(declare-fun B70-F () Bool)
(declare-fun B71-F () Bool)
(declare-fun I71 () Int)
(declare-fun B72-F () Bool)
(declare-fun I72 () Int)
(declare-fun B73-F () Bool)
(declare-fun B74-F () Bool)
(declare-fun I74 () Int)
(declare-fun B75-F () Bool)
(declare-fun B76-F () Bool)
(declare-fun B77-F () Bool)
(declare-fun B78-F () Bool)
(declare-fun I78 () Int)
(declare-fun B79-F () Bool)
(declare-fun B80-F () Bool)
(declare-fun B81-F () Bool)
(declare-fun I82 () Int)
(declare-fun B83-F () Bool)
(declare-fun B84-F () Bool)
(declare-fun B85-F () Bool)
(declare-fun B86-F () Bool)
(set-info :major-phase |base constraints|)
(set-info :base-constraint-type |constraints defining hierarchy (group is filled, if a child is filled)|)
(assert (not (or B58-F B59-F)))
(assert (= B59-F (or B60-F B61-F)))
(assert (= B83-F (or B84-F B85-F)))
(assert B57-F)
(assert (= B48-F (or B49-F B50-F B51-F B52-F)))
(assert (= B53-F (or B54-F B55-F B56-F)))
(assert (= B18-F (or B19-F B20-F B21-F B22-F)))
(assert (= B62-F (or B63-F B81-F)))
(assert (= B63-F (or B64-F B65-F B66-F B67-F B68-F B69-F B70-F B71-F B72-F B73-F B74-F B75-F B76-F B77-F B78-F B79-F B80-F)))
(set-info :base-constraint-type |domainconstraints number-fields|)
(assert (ite B60-F (and (<= I60 999999999999) (>= I60 0)) (= I60 0)))
(assert (ite B61-F (and (<= I61 999999999999) (>= I61 0)) (= I61 0)))
(assert (and (<= I13 99999999999999) (>= I13 (- 99999999999999))))
(assert (and (<= I35 999999999999) (>= I35 (- 999999999999))))
(assert (and (<= I36 99999999999999) (>= I36 (- 99999999999999))))
(assert (and (<= I37 99999999999999) (>= I37 (- 99999999999999))))
(assert (and (<= I38 999999999999) (>= I38 (- 999999999999))))
(assert (and (<= I39 999999999999) (>= I39 (- 999999999999))))
(assert (and (<= I40 99999999999999) (>= I40 (- 99999999999999))))
(assert (and (<= I42 999999999999) (>= I42 0)))
(assert (and (<= I43 999999999999) (>= I43 0)))
(assert (and (<= I44 99999999999999) (>= I44 0)))
(assert (and (<= I45 999999999999) (>= I45 0)))
(assert (and (<= I46 999999999999) (>= I46 0)))
(assert (and (<= I47 99999999999999) (>= I47 0)))
(assert (ite B50-F (and (<= I50 999999999999) (>= I50 0)) (= I50 0)))
(assert (ite B51-F (and (<= I51 999999999999) (>= I51 0)) (= I51 0)))
(assert (ite B52-F (and (<= I52 99999999999999) (>= I52 0)) (= I52 0)))
(assert (ite B54-F (and (<= I54 999999999999) (>= I54 (- 999999999999))) (= I54 0)))
(assert (ite B55-F (and (<= I55 999999999999) (>= I55 (- 999999999999))) (= I55 0)))
(assert (ite B56-F (and (<= I56 99999999999999) (>= I56 (- 99999999999999))) (= I56 0)))
(assert (and (<= I17 999999999999) (>= I17 (- 999999999999))))
(assert (ite B20-F (and (<= I20 999999999999) (>= I20 (- 999999999999))) (= I20 0)))
(assert (ite B21-F (and (<= I21 999999999999) (>= I21 (- 999999999999))) (= I21 0)))
(assert (ite B22-F (and (<= I22 99999999999999) (>= I22 (- 99999999999999))) (= I22 0)))
(assert (and (<= I23 99999999999999) (>= I23 (- 99999999999999))))
(assert (and (<= I27 999999999999) (>= I27 (- 999999999999))))
(assert (and (<= I28 999999999999) (>= I28 (- 999999999999))))
(assert (and (<= I29 999999999999) (>= I29 (- 999999999999))))
(assert (and (<= I30 99999999999999) (>= I30 (- 99999999999999))))
(assert (ite B67-F true false))
(assert (ite B66-F (and (<= I66 99999999999999) (>= I66 (- 9999999999999))) (= I66 0)))
(assert (ite B64-F true false))
(assert (ite B65-F true false))
(assert (ite B68-F (and (<= I68 99999999999999) (>= I68 (- 9999999999999))) (= I68 0)))
(assert (ite B70-F true false))
(assert (ite B69-F true false))
(assert (ite B71-F (and (<= I71 99999999999999) (>= I71 (- 9999999999999))) (= I71 0)))
(assert (ite B72-F (and (<= I72 99999999999999) (>= I72 (- 9999999999999))) (= I72 0)))
(assert (ite B73-F true false))
(assert (ite B74-F (and (<= I74 99999999999999) (>= I74 (- 9999999999999))) (= I74 0)))
(assert (ite B78-F (and (<= I78 99999999999999) (>= I78 (- 9999999999999))) (= I78 0)))
(assert (ite B75-F true false))
(assert (ite B76-F true false))
(assert (ite B77-F true false))
(assert (ite B79-F true false))
(assert (ite B80-F true false))
(assert (ite B81-F (and (<= I82 99999999999999) (>= I82 (- 9999999999999))) (= I82 0)))
(set-info :base-constraint-type |domainconstraints date-fields|)
(assert (and (ite B58-F (and (> I58-y 1900) (< I58-y 2100)) (= I58-y 0)) (ite B58-F (and (> I58-m 0) (<= I58-m 12)) (= I58-m 0)) (ite B58-F (and (> I58-d 0) (<= I58-d (ite (or (= I58-m 0) (= I58-m 1) (= I58-m 3) (= I58-m 5) (= I58-m 7) (= I58-m 8) (= I58-m 10) (= I58-m 12)) 31 (ite (or (= I58-m 4) (= I58-m 6) (= I58-m 9) (= I58-m 11)) 30 (ite (= (mod I58-y 4) 0) 29 28))))) (= I58-d 0))))
(assert (ite B7-F (and (> I7-y 1900) (< I7-y 2100)) (= I7-y 0)))
(assert (and (> I12-y 1900) (< I12-y 2100) (> I12-m 0) (<= I12-m 12) (> I12-d 0) (<= I12-d (ite (or (= I12-m 0) (= I12-m 1) (= I12-m 3) (= I12-m 5) (= I12-m 7) (= I12-m 8) (= I12-m 10) (= I12-m 12)) 31 (ite (or (= I12-m 4) (= I12-m 6) (= I12-m 9) (= I12-m 11)) 30 (ite (= (mod I12-y 4) 0) 29 28))))))
(assert (and (> I11-y 1900) (< I11-y 2100) (> I11-m 0) (<= I11-m 12) (> I11-d 0) (<= I11-d (ite (or (= I11-m 0) (= I11-m 1) (= I11-m 3) (= I11-m 5) (= I11-m 7) (= I11-m 8) (= I11-m 10) (= I11-m 12)) 31 (ite (or (= I11-m 4) (= I11-m 6) (= I11-m 9) (= I11-m 11)) 30 (ite (= (mod I11-y 4) 0) 29 28))))))
(assert (and (ite B33-F (and (> I33-y 1900) (< I33-y 2100)) (= I33-y 0)) (ite B33-F (and (> I33-m 0) (<= I33-m 12)) (= I33-m 0)) (ite B33-F (and (> I33-d 0) (<= I33-d (ite (or (= I33-m 0) (= I33-m 1) (= I33-m 3) (= I33-m 5) (= I33-m 7) (= I33-m 8) (= I33-m 10) (= I33-m 12)) 31 (ite (or (= I33-m 4) (= I33-m 6) (= I33-m 9) (= I33-m 11)) 30 (ite (= (mod I33-y 4) 0) 29 28))))) (= I33-d 0))))
(assert (and (> I32-y 1900) (< I32-y 2100) (> I32-m 0) (<= I32-m 12) (> I32-d 0) (<= I32-d (ite (or (= I32-m 0) (= I32-m 1) (= I32-m 3) (= I32-m 5) (= I32-m 7) (= I32-m 8) (= I32-m 10) (= I32-m 12)) 31 (ite (or (= I32-m 4) (= I32-m 6) (= I32-m 9) (= I32-m 11)) 30 (ite (= (mod I32-y 4) 0) 29 28))))))
(assert (and (ite B34-F (and (> I34-y 1900) (< I34-y 2100)) (= I34-y 0)) (ite B34-F (and (> I34-m 0) (<= I34-m 12)) (= I34-m 0)) (ite B34-F (and (> I34-d 0) (<= I34-d (ite (or (= I34-m 0) (= I34-m 1) (= I34-m 3) (= I34-m 5) (= I34-m 7) (= I34-m 8) (= I34-m 10) (= I34-m 12)) 31 (ite (or (= I34-m 4) (= I34-m 6) (= I34-m 9) (= I34-m 11)) 30 (ite (= (mod I34-y 4) 0) 29 28))))) (= I34-d 0))))
(assert (and (> I41-y 1900) (< I41-y 2100) (> I41-m 0) (<= I41-m 12) (> I41-d 0) (<= I41-d (ite (or (= I41-m 0) (= I41-m 1) (= I41-m 3) (= I41-m 5) (= I41-m 7) (= I41-m 8) (= I41-m 10) (= I41-m 12)) 31 (ite (or (= I41-m 4) (= I41-m 6) (= I41-m 9) (= I41-m 11)) 30 (ite (= (mod I41-y 4) 0) 29 28))))))
(assert (and (> I16-y 1900) (< I16-y 2100) (> I16-m 0) (<= I16-m 12) (> I16-d 0) (<= I16-d (ite (or (= I16-m 0) (= I16-m 1) (= I16-m 3) (= I16-m 5) (= I16-m 7) (= I16-m 8) (= I16-m 10) (= I16-m 12)) 31 (ite (or (= I16-m 4) (= I16-m 6) (= I16-m 9) (= I16-m 11)) 30 (ite (= (mod I16-y 4) 0) 29 28))))))
(assert (and (> I15-y 1900) (< I15-y 2100) (> I15-m 0) (<= I15-m 12) (> I15-d 0) (<= I15-d (ite (or (= I15-m 0) (= I15-m 1) (= I15-m 3) (= I15-m 5) (= I15-m 7) (= I15-m 8) (= I15-m 10) (= I15-m 12)) 31 (ite (or (= I15-m 4) (= I15-m 6) (= I15-m 9) (= I15-m 11)) 30 (ite (= (mod I15-y 4) 0) 29 28))))))
(assert (or (< I14-s-y I14-e-y) (and (= I14-s-y I14-e-y) (< I14-s-m I14-e-m)) (and (= I14-s-y I14-e-y) (= I14-s-m I14-e-m) (<= I14-s-d I14-e-d))))
(assert (and (>= I14-e-d 1) (<= I14-e-d (ite (or (= I14-e-m 0) (= I14-e-m 1) (= I14-e-m 3) (= I14-e-m 5) (= I14-e-m 7) (= I14-e-m 8) (= I14-e-m 10) (= I14-e-m 12)) 31 (ite (or (= I14-e-m 4) (= I14-e-m 6) (= I14-e-m 9) (= I14-e-m 11)) 30 (ite (= (mod I14-e-y 4) 0) 29 28))))))
(assert (and (>= I14-e-m 1) (<= I14-e-m 12)))
(assert (and (>= I14-e-y 1901) (<= I14-e-y 2099)))
(assert (and (>= I14-s-d 1) (<= I14-s-d (ite (or (= I14-s-m 0) (= I14-s-m 1) (= I14-s-m 3) (= I14-s-m 5) (= I14-s-m 7) (= I14-s-m 8) (= I14-s-m 10) (= I14-s-m 12)) 31 (ite (or (= I14-s-m 4) (= I14-s-m 6) (= I14-s-m 9) (= I14-s-m 11)) 30 (ite (= (mod I14-s-y 4) 0) 29 28))))))
(assert (and (>= I14-s-m 1) (<= I14-s-m 12)))
(assert (and (>= I14-s-y 1901) (<= I14-s-y 2099)))
(assert (and (> I26-y 1900) (< I26-y 2100) (> I26-m 0) (<= I26-m 12) (> I26-d 0) (<= I26-d (ite (or (= I26-m 0) (= I26-m 1) (= I26-m 3) (= I26-m 5) (= I26-m 7) (= I26-m 8) (= I26-m 10) (= I26-m 12)) 31 (ite (or (= I26-m 4) (= I26-m 6) (= I26-m 9) (= I26-m 11)) 30 (ite (= (mod I26-y 4) 0) 29 28))))))
(assert (and (> I25-y 1900) (< I25-y 2100) (> I25-m 0) (<= I25-m 12) (> I25-d 0) (<= I25-d (ite (or (= I25-m 0) (= I25-m 1) (= I25-m 3) (= I25-m 5) (= I25-m 7) (= I25-m 8) (= I25-m 10) (= I25-m 12)) 31 (ite (or (= I25-m 4) (= I25-m 6) (= I25-m 9) (= I25-m 11)) 30 (ite (= (mod I25-y 4) 0) 29 28))))))
(assert (or (< I24-s-y I24-e-y) (and (= I24-s-y I24-e-y) (< I24-s-m I24-e-m)) (and (= I24-s-y I24-e-y) (= I24-s-m I24-e-m) (<= I24-s-d I24-e-d))))
(assert (and (>= I24-e-d 1) (<= I24-e-d (ite (or (= I24-e-m 0) (= I24-e-m 1) (= I24-e-m 3) (= I24-e-m 5) (= I24-e-m 7) (= I24-e-m 8) (= I24-e-m 10) (= I24-e-m 12)) 31 (ite (or (= I24-e-m 4) (= I24-e-m 6) (= I24-e-m 9) (= I24-e-m 11)) 30 (ite (= (mod I24-e-y 4) 0) 29 28))))))
(assert (and (>= I24-e-m 1) (<= I24-e-m 12)))
(assert (and (>= I24-e-y 1901) (<= I24-e-y 2099)))
(assert (and (>= I24-s-d 1) (<= I24-s-d (ite (or (= I24-s-m 0) (= I24-s-m 1) (= I24-s-m 3) (= I24-s-m 5) (= I24-s-m 7) (= I24-s-m 8) (= I24-s-m 10) (= I24-s-m 12)) 31 (ite (or (= I24-s-m 4) (= I24-s-m 6) (= I24-s-m 9) (= I24-s-m 11)) 30 (ite (= (mod I24-s-y 4) 0) 29 28))))))
(assert (and (>= I24-s-m 1) (<= I24-s-m 12)))
(assert (and (>= I24-s-y 1901) (<= I24-s-y 2099)))
(set-info :base-constraint-type |constraints for date-strategy|)
(assert (and (> (str.to_int S10-S) 1900) (< (str.to_int S10-S) 2100)))
(assert (and (> (str.to_int S10-S) 1900) (< (str.to_int S10-S) 2100)))
(set-info :base-constraint-type |domainconstraints string fields|)
(assert (and (str.in_re S10-S (re.+ (re.range "0" "9"))) (>= (str.len S10-S) 4) (<= (str.len S10-S) 4)))
(assert (and (str.in_re S31-S (re.+ (re.range "0" "9"))) (>= (str.len S31-S) 4) (<= (str.len S31-S) 4)))
(set-info :base-constraint-type |domainconstraints index-based string fields|)
(assert (or (= S2-S "0") (= S2-S "1")))
(assert (ite B8-F (or (= S8-S "11") (= S8-S "01") (= S8-S "12") (= S8-S "02") (= S8-S "03") (= S8-S "04") (= S8-S "05") (= S8-S "06") (= S8-S "07") (= S8-S "08") (= S8-S "09") (= S8-S "10")) (= S8-S "")))
(assert (or (= S1-S "2216060427666") (= S1-S "2815094023008") (= S1-S "1060048649864") (= S1-S "2348008413417") (= S1-S "2702024686052") (= S1-S "3207051220872") (= S1-S "1123012960769") (= S1-S "5103096558745") (= S1-S "2632041436639") (= S1-S "3103071321727") (= S1-S "3062087900803") (= S1-S "9170050074951") (= S1-S "4084068125545") (= S1-S "2460083378687") (= S1-S "2189063488000")))
(assert (ite B3-F (or (= S3-S "2216060427666") (= S3-S "2815094023008") (= S3-S "1060048649864") (= S3-S "2348008413417") (= S3-S "2702024686052") (= S3-S "3207051220872") (= S3-S "1123012960769") (= S3-S "5103096558745") (= S3-S "2632041436639") (= S3-S "3103071321727") (= S3-S "3062087900803") (= S3-S "9170050074951") (= S3-S "4084068125545") (= S3-S "2460083378687") (= S3-S "2189063488000")) (= S3-S "")))
(set-info :base-constraint-type |constraints, guarding filling of calculations|)
(assert B81-F)
(set-info :base-constraint-type |constraints from validation-rules|)
(assert (not (and B61-F B60-F (distinct I60 0) (distinct I61 (div (* I60 15) 100)))))
(assert (not (and B58-F (or (< I58-y 2025) (> I58-y 2025)))))
(assert (not (and (or B85-F B84-F) (not (and B85-F B84-F)))))
(assert (not (and (not B64-F) (not B65-F) (not B66-F) (not B67-F) (not B68-F) (not B69-F) (not B70-F) (not B71-F) (not B72-F) (not B73-F) (not B74-F) (not B75-F) (not B76-F) (not B77-F) (not B78-F) (not B79-F) (not B80-F) (not B81-F))))
(assert (not (distinct 1 (+ I17 I21 I29 I39 I43 I46 I51 I55 (- 1038719422381)))))
(assert (not (distinct (- 1) (+ I13 I22 I23 I30 I36 I37 I40 I44 I47 I52 I56 (- 4245)))))
(assert (not (and B7-F (or (< I7-y 2025) (> I7-y 2025)))))
(assert (not (or (> I12-y I11-y) (and (= I12-y I11-y) (> I12-m I11-m)) (and (= I12-y I11-y) (= I12-m I11-m) (> I12-d I11-d)))))
(assert (not (or (distinct I11-y (ite B7-F I7-y 0)) (distinct I11-m (str.to_int (ite B8-F S8-S ""))))))
(assert (not (>= (ite (and (>= (str.to_int S10-S) 1) (<= (str.to_int S10-S) 9999)) (+ (- I12-y (str.to_int S10-S)) (ite (or (< (str.to_int S10-S) I12-y) (and (= (str.to_int S10-S) I12-y) (< 5 I12-m)) (and (= (str.to_int S10-S) I12-y) (= 5 I12-m) (< 1 I12-d)) (and (= (str.to_int S10-S) I12-y) (= 5 I12-m) (= 1 I12-d))) (ite (or (< 5 I12-m) (and (= 5 I12-m) (<= 1 I12-d))) 0 (- 1)) (ite (or (> 5 I12-m) (and (= 5 I12-m) (>= 1 I12-d))) 0 1))) 0) 1)))
(assert (not (< I11-y (str.to_int (str.substr S10-S 0 4)))))
(assert (not (> (str.to_int (str.substr S10-S 0 4)) 2025)))
(assert (not (> (ite (>= (- I13 (- 237656939526)) 0) (- I13 (- 237656939526)) (- (- I13 (- 237656939526)))) 100)))
(assert (not (and B33-F (not B34-F))))
(assert (not (and B33-F (or (< I33-y I32-y) (and (= I33-y I32-y) (< I33-m I32-m)) (and (= I33-y I32-y) (= I33-m I32-m) (< I33-d I32-d)) (and (= I33-y I32-y) (= I33-m I32-m) (= I33-d I32-d))))))
(assert (not (and B33-F (< I33-y (str.to_int (str.substr S31-S 0 4))))))
(assert (not (and B33-F B34-F (or (< I33-y I34-y) (and (= I33-y I34-y) (< I33-m I34-m)) (and (= I33-y I34-y) (= I33-m I34-m) (< I33-d I34-d))))))
(assert (not (and B33-F (or (< I33-y (ite B7-F I7-y 0)) (and (= I33-y (ite B7-F I7-y 0)) (< I33-m (str.to_int (ite B8-F S8-S ""))))))))
(assert (not (and B34-F (< I34-y 2023))))
(assert (not (distinct I32-y (str.to_int (str.substr S31-S 0 4)))))
(assert (not (or (> I32-y (ite B7-F I7-y 0)) (and (= I32-y (ite B7-F I7-y 0)) (> I32-m (str.to_int (ite B8-F S8-S "")))))))
(assert (not (> (str.to_int (str.substr S31-S 0 4)) 2025)))
(assert (not (or (and (or (< I32-y 2022) (and (= I32-y 2022) (< I32-m 10)) (and (= I32-y 2022) (= I32-m 10) (< I32-d 1))) (< (str.to_int (str.substr S31-S 0 4)) 2025)) (and (or (> I32-y 2022) (and (= I32-y 2022) (> I32-m 10)) (and (= I32-y 2022) (= I32-m 10) (> I32-d 1)) (and (= I32-y 2022) (= I32-m 10) (= I32-d 1))) (or (and (< (str.to_int (str.substr S31-S 0 4)) 2025) (= (str.to_int (str.substr S31-S 0 4)) 2024) (>= (str.to_int (ite B8-F S8-S "")) 5) (<= (str.to_int (ite B8-F S8-S "")) 12)) (and (< (str.to_int (str.substr S31-S 0 4)) 2025) (distinct (str.to_int (str.substr S31-S 0 4)) 2024)))))))
(assert (not (or (and (= I32-y (ite B7-F I7-y 0)) (< I32-m (- (str.to_int (ite B8-F S8-S "")) 4))) (and (distinct I32-y (ite B7-F I7-y 0)) (< I32-y (- (ite B7-F I7-y 0) 1))) (and (distinct I32-y (ite B7-F I7-y 0)) (= I32-y (- (ite B7-F I7-y 0) 1)) (> I32-m 8) (< I32-m (- (+ (str.to_int (ite B8-F S8-S "")) 12) 4))) (and (distinct I32-y (ite B7-F I7-y 0)) (= I32-y (- (ite B7-F I7-y 0) 1)) (<= I32-m 8)))))
(assert (not (and (distinct I38 0) (= I39 0))))
(assert (not (> (ite (>= (- I36 24700540216) 0) (- I36 24700540216) (- (- I36 24700540216))) 100)))
(assert (not (or (> 449100731200 (+ (* I35 15) 100)) (> (* I39 100) (+ (* I38 15) 100)))))
(assert (not (> (ite (>= (- I37 (- 423797)) 0) (- I37 (- 423797)) (- (- I37 (- 423797)))) 100)))
(assert (not (> (ite (>= (- I40 (div (* I39 55) 10)) 0) (- I40 (div (* I39 55) 10)) (- (- I40 (div (* I39 55) 10)))) 100)))
(assert (not (or (and (distinct I42 0) (= I43 0)) (and (distinct I45 0) (= I46 0)) (and (distinct I50 0) (= I51 0)))))
(assert (not (> (ite (>= (- I44 (div (* I43 55) 10)) 0) (- I44 (div (* I43 55) 10)) (- (- I44 (div (* I43 55) 10)))) 100)))
(assert (not (or (> (* I43 100) (+ (* I42 15) 100)) (> (* I46 100) (+ (* I45 15) 100)) (> (* I51 100) (+ (* I50 15) 100)))))
(assert (not (> (ite (>= (- I47 (div (* I46 55) 10)) 0) (- I47 (div (* I46 55) 10)) (- (- I47 (div (* I46 55) 10)))) 100)))
(assert (not (and B51-F B52-F (> (ite (>= (- I52 (div (* I51 55) 10)) 0) (- I52 (div (* I51 55) 10)) (- (- I52 (div (* I51 55) 10)))) 100))))
(assert (not (and (or B49-F B50-F B51-F B52-F) (not (and B49-F B50-F B51-F B52-F)))))
(assert (not (and B54-F (distinct I54 0) (= I55 0))))
(assert (not (and B55-F B56-F (> (ite (>= (- I56 (div (* I55 55) 10)) 0) (- I56 (div (* I55 55) 10)) (- (- I56 (div (* I55 55) 10)))) 100))))
(assert (not (and B55-F (> (* I55 100) (+ (* I54 15) 100)))))
(assert (not (or (> I41-y (ite B7-F I7-y 0)) (and (> I41-m (str.to_int (ite B8-F S8-S ""))) (= I41-y (ite B7-F I7-y 0))))))
(assert (not (or (> I16-y I15-y) (and (= I16-y I15-y) (> I16-m I15-m)) (and (= I16-y I15-y) (= I16-m I15-m) (> I16-d I15-d)))))
(assert (not (or (distinct I15-y (ite B7-F I7-y 0)) (distinct I15-m (str.to_int (ite B8-F S8-S ""))))))
(assert (not (< I15-y 2025)))
(assert (not (or (= I17 0) (and (distinct I20 0) (= I21 0)))))
(assert (not (> (ite (>= (- (- 4244) (div (* I17 55) 10)) 0) (- (- 4244) (div (* I17 55) 10)) (- (- (- 4244) (div (* I17 55) 10)))) 100)))
(assert (not (or (> (* I17 100) 85) (> (* I21 100) (+ (* I20 15) 100)))))
(assert (not (and B21-F B22-F (> (ite (>= (- I22 (div (* I21 55) 10)) 0) (- I22 (div (* I21 55) 10)) (- (- I22 (div (* I21 55) 10)))) 100))))
(assert (not (and (or B19-F B20-F B21-F B22-F) (not (and B19-F B20-F B21-F B22-F)))))
(assert (not (> (ite (>= (- I23 (- 5499999999995)) 0) (- I23 (- 5499999999995)) (- (- I23 (- 5499999999995)))) 100)))
(assert (not (or (> I14-e-y I15-y) (and (= I14-e-y I15-y) (> I14-e-m I15-m)) (and (= I14-e-y I15-y) (= I14-e-m I15-m) (> I14-e-d I15-d)))))
(assert (not (or (< I14-s-y (- I14-e-y 1)) (and (= I14-s-y (- I14-e-y 1)) (< I14-s-m I14-e-m)) (and (= I14-s-y (- I14-e-y 1)) (= I14-s-m I14-e-m) (< I14-s-d (+ I14-e-d 1))))))
(assert (not (or (> I26-y I25-y) (and (= I26-y I25-y) (> I26-m I25-m)) (and (= I26-y I25-y) (= I26-m I25-m) (> I26-d I25-d)))))
(assert (not (or (distinct I25-y (ite B7-F I7-y 0)) (distinct I25-m (str.to_int (ite B8-F S8-S ""))))))
(assert (not (< I25-y 2025)))
(assert (not (and (distinct I28 0) (= I29 0))))
(assert (not (or (> 100 (+ (* I27 15) 100)) (> (* I29 100) (+ (* I28 15) 100)))))
(assert (not (> (ite (>= (- I30 (div (* I29 55) 10)) 0) (- I30 (div (* I29 55) 10)) (- (- I30 (div (* I29 55) 10)))) 100)))
(assert (not (or (> I24-e-y I25-y) (and (= I24-e-y I25-y) (> I24-e-m I25-m)) (and (= I24-e-y I25-y) (= I24-e-m I25-m) (> I24-e-d I25-d)))))
(assert (not (or (< I24-s-y (- I24-e-y 1)) (and (= I24-s-y (- I24-e-y 1)) (< I24-s-m I24-e-m)) (and (= I24-s-y (- I24-e-y 1)) (= I24-s-m I24-e-m) (< I24-s-d (+ I24-e-d 1))))))
(assert (not B58-F))
(assert (and B7-F B8-F))
(assert (not (and B7-F B8-F (or (< 2026 I7-y) (and (= 2026 I7-y) (<= 6 (str.to_int S8-S)))))))
(assert (not (and B7-F B8-F (or (< 2027 I7-y) (and (= 2027 I7-y) (<= 6 (str.to_int S8-S)))))))
(assert (not (and B3-F (= S2-S "0"))))
(assert (not (and B3-F (= S3-S S1-S))))
(assert (not (and (or B67-F B66-F B68-F B64-F B65-F B69-F B70-F B71-F B72-F B73-F B80-F B74-F B77-F B78-F B75-F B76-F B79-F) (not B81-F))))
(assert (not (and B81-F (or B67-F B66-F B68-F B64-F B65-F B69-F B70-F B71-F B72-F B73-F B80-F B74-F B77-F B78-F B75-F B76-F B79-F) (distinct I82 (+ I66 I68 I71 I72 I74 I78 55611514521809)))))
(assert (not (and B81-F (not B67-F) (not B66-F) (not B68-F) (not B64-F) (not B65-F) (not B69-F) (not B70-F) (not B71-F) (not B72-F) (not B73-F) (not B80-F) (not B74-F) (not B77-F) (not B78-F) (not B75-F) (not B76-F) (not B79-F))))
(assert (not (and B81-F (distinct I82 100))))
(set-info :major-phase |control constraints|)
(push 1)
(assert B19-F)
(set-info :status sat)
(check-sat)
(push 1)
(assert B22-F)
(set-info :status sat)
(check-sat)
(push 1)
(assert B50-F)
(set-info :status sat)
(check-sat)
(push 1)
(assert B6-F)
(set-info :status sat)
(check-sat)
(push 1)
(assert B4-F)
(set-info :status sat)
(check-sat)
(push 1)
(assert B52-F)
(set-info :status sat)
(check-sat)
(push 1)
(assert B33-F)
(set-info :status sat)
(check-sat)
(push 1)
(assert B8-F)
(set-info :status sat)
(check-sat)
(push 1)
(assert B34-F)
(set-info :status sat)
(check-sat)
(push 1)
(assert B5-F)
(set-info :status sat)
(check-sat)
(push 1)
(assert B3-F)
(set-info :status sat)
(check-sat)
(push 1)
(assert B9-F)
(set-info :status sat)
(check-sat)
(push 1)
(assert B49-F)
(set-info :status sat)
(check-sat)
(push 1)
(assert B69-F)
(set-info :status sat)
(check-sat)
(push 1)
(assert B70-F)
(set-info :status sat)
(check-sat)
(push 1)
(assert B75-F)
(set-info :status sat)
(check-sat)
(push 1)
(assert B76-F)
(set-info :status sat)
(check-sat)
(push 1)
(assert B64-F)
(set-info :status sat)
(check-sat)
(push 1)
(assert B79-F)
(set-info :status sat)
(check-sat)
(push 1)
(assert B65-F)
(set-info :status sat)
(check-sat)
(push 1)
(assert B21-F)
(set-info :status sat)
(check-sat)
(push 1)
(assert B60-F)
(set-info :status unsat)
(check-sat)
(pop 1)
(push 1)
(assert B77-F)
(set-info :status sat)
(check-sat)
(push 1)
(assert B51-F)
(set-info :status sat)
(check-sat)
(push 1)
(assert B73-F)
(set-info :status sat)
(check-sat)
(push 1)
(assert B80-F)
(set-info :status sat)
(check-sat)
(push 1)
(assert B20-F)
(set-info :status sat)
(check-sat)
(push 1)
(assert B7-F)
(set-info :status sat)
(check-sat)
(push 1)
(assert B67-F)
(set-info :status sat)
(check-sat)
(push 1)
(assert B66-F)
(set-info :status sat)
(check-sat)
(push 1)
(assert B58-F)
(set-info :status unsat)
(check-sat)
(pop 1)
(push 1)
(assert B54-F)
(set-info :status sat)
(check-sat)
(push 1)
(assert B85-F)
(set-info :status sat)
(check-sat)
(push 1)
(assert B84-F)
(set-info :status sat)
(check-sat)
(push 1)
(assert B86-F)
(set-info :status sat)
(check-sat)
(push 1)
(assert B72-F)
(set-info :status sat)
(check-sat)
(push 1)
(assert B78-F)
(set-info :status sat)
(check-sat)
(push 1)
(assert B81-F)
(set-info :status sat)
(check-sat)
(push 1)
(assert B68-F)
(set-info :status sat)
(check-sat)
(push 1)
(assert B55-F)
(set-info :status sat)
(check-sat)
(push 1)
(assert B71-F)
(set-info :status sat)
(check-sat)
(push 1)
(assert B74-F)
(set-info :status sat)
(check-sat)
(push 1)
(assert B56-F)
(set-info :status sat)
(check-sat)
(push 1)
(assert B61-F)
(set-info :status unsat)
(check-sat)
(pop 1)
(set-info :status sat)
(check-sat)
(exit)

